NAME 
ROWS
 N  OBJ
 L  R0      
 E  R1      
 E  R2      
 E  R3      
 E  R4      
 E  R5      
 E  R6      
 E  R7      
 E  R8      
 E  R9      
 E  R10     
 E  R11     
 E  R12     
 E  R13     
 E  R14     
 E  R15     
 E  R16     
 E  R17     
 E  R18     
 E  R19     
 E  R20     
COLUMNS
    MARKER    'MARKER'                 'INTORG'
    I0(6)     OBJ       135
    I0(6)     R0        122
    I0(6)     R2        8
    I0(6)     R3        4
    I0(6)     R9        10
    I0(6)     R10       5
    I0(6)     R20       1
    I1(7)     OBJ       11
    I1(7)     R0        -150
    I1(7)     R1        12
    I1(7)     R2        18
    I1(7)     R3        17
    I1(7)     R6        4
    I1(7)     R8        8
    I1(7)     R20       1
    I2(8)     OBJ       -185
    I2(8)     R0        -140
    I2(8)     R1        1
    I2(8)     R4        14
    I2(8)     R5        11
    I2(8)     R6        2
    I2(8)     R7        18
    I2(8)     R9        4
    I2(8)     R20       1
    I3(6)     OBJ       196
    I3(6)     R0        -52
    I3(6)     R4        13
    I3(6)     R7        19
    I3(6)     R8        3
    I3(6)     R9        19
    I3(6)     R20       1
    I4(8)     OBJ       87
    I4(8)     R0        5
    I4(8)     R2        14
    I4(8)     R4        8
    I4(8)     R6        8
    I4(8)     R7        11
    I4(8)     R8        16
    I4(8)     R10       1
    I4(8)     R20       1
    I5(6)     OBJ       82
    I5(6)     R0        156
    I5(6)     R6        9
    I5(6)     R7        8
    I5(6)     R9        11
    I5(6)     R10       12
    I5(6)     R20       1
    I6(8)     OBJ       10
    I6(8)     R0        -121
    I6(8)     R3        8
    I6(8)     R4        3
    I6(8)     R5        2
    I6(8)     R7        -1
    I6(8)     R8        18
    I6(8)     R10       12
    I6(8)     R20       1
    I7(6)     OBJ       -38
    I7(6)     R0        -197
    I7(6)     R1        4
    I7(6)     R2        8
    I7(6)     R5        5
    I7(6)     R9        17
    I7(6)     R20       1
    I8(8)     OBJ       -71
    I8(8)     R0        189
    I8(8)     R2        2
    I8(8)     R3        -1
    I8(8)     R4        13
    I8(8)     R7        19
    I8(8)     R9        17
    I8(8)     R10       8
    I8(8)     R20       1
    I9(8)     OBJ       20
    I9(8)     R0        -178
    I9(8)     R1        5
    I9(8)     R3        16
    I9(8)     R4        13
    I9(8)     R5        4
    I9(8)     R6        11
    I9(8)     R7        4
    I9(8)     R20       1
    MARKER    'MARKER'                 'INTEND'
    C10(10)   OBJ       6
    C10(10)   R0        -7
    C10(10)   R2        11
    C10(10)   R3        6
    C10(10)   R8        7
    C10(10)   R10       13
    C10(10)   R11       15
    C10(10)   R14       12
    C10(10)   R15       7
    C10(10)   R16       17
    C10(10)   R19       7
    C11(11)   OBJ       7
    C11(11)   R0        -9
    C11(11)   R2        3
    C11(11)   R3        -1
    C11(11)   R4        19
    C11(11)   R6        4
    C11(11)   R8        8
    C11(11)   R9        19
    C11(11)   R12       13
    C11(11)   R13       3
    C11(11)   R17       9
    C11(11)   R18       2
    C12(13)   OBJ       1
    C12(13)   R0        1
    C12(13)   R3        15
    C12(13)   R4        7
    C12(13)   R6        8
    C12(13)   R7        -1
    C12(13)   R8        1
    C12(13)   R10       15
    C12(13)   R11       19
    C12(13)   R12       12
    C12(13)   R13       3
    C12(13)   R16       3
    C12(13)   R18       7
    C12(13)   R19       4
    C13(11)   OBJ       -4
    C13(11)   R2        11
    C13(11)   R3        3
    C13(11)   R6        14
    C13(11)   R7        15
    C13(11)   R9        12
    C13(11)   R10       13
    C13(11)   R11       14
    C13(11)   R13       16
    C13(11)   R14       8
    C13(11)   R15       3
    C13(11)   R18       11
    C14(5)    OBJ       6
    C14(5)    R0        -10
    C14(5)    R3        14
    C14(5)    R10       16
    C14(5)    R15       1
    C14(5)    R19       4
    C15(10)   OBJ       3
    C15(10)   R0        -4
    C15(10)   R4        -1
    C15(10)   R5        19
    C15(10)   R8        1
    C15(10)   R9        15
    C15(10)   R12       2
    C15(10)   R13       9
    C15(10)   R15       12
    C15(10)   R16       6
    C15(10)   R17       17
    C16(11)   OBJ       2
    C16(11)   R0        -1
    C16(11)   R1        4
    C16(11)   R4        12
    C16(11)   R5        14
    C16(11)   R7        8
    C16(11)   R9        12
    C16(11)   R10       4
    C16(11)   R13       19
    C16(11)   R14       7
    C16(11)   R17       17
    C16(11)   R18       12
    C17(12)   OBJ       -9
    C17(12)   R0        6
    C17(12)   R2        6
    C17(12)   R3        17
    C17(12)   R4        10
    C17(12)   R7        1
    C17(12)   R10       8
    C17(12)   R13       15
    C17(12)   R14       5
    C17(12)   R15       5
    C17(12)   R16       9
    C17(12)   R18       16
    C17(12)   R19       3
    C18(13)   OBJ       -2
    C18(13)   R0        -2
    C18(13)   R1        5
    C18(13)   R2        15
    C18(13)   R3        5
    C18(13)   R4        2
    C18(13)   R5        9
    C18(13)   R7        3
    C18(13)   R8        16
    C18(13)   R9        13
    C18(13)   R12       9
    C18(13)   R13       13
    C18(13)   R14       8
    C18(13)   R17       6
    C19(12)   OBJ       9
    C19(12)   R0        5
    C19(12)   R1        7
    C19(12)   R2        17
    C19(12)   R3        16
    C19(12)   R5        18
    C19(12)   R7        -1
    C19(12)   R9        5
    C19(12)   R10       11
    C19(12)   R11       -1
    C19(12)   R12       3
    C19(12)   R15       14
    C19(12)   R19       6
    C20(1)    R1        1
    C21(1)    R2        1
    C22(1)    R3        1
    C23(1)    R4        1
    C24(1)    R5        1
    C25(1)    R6        1
    C26(1)    R7        1
    C27(1)    R8        1
    C28(1)    R9        1
    C29(1)    R10       1
    C30(1)    R11       1
    C31(1)    R12       1
    C32(1)    R13       1
    C33(1)    R14       1
    C34(1)    R15       1
    C35(1)    R16       1
    C36(1)    R17       1
    C37(1)    R18       1
    C38(1)    R19       1
    C39(1)    R20       1
RHS
    RHS1      R0        -1.3027884615384616e+02
    RHS1      R1        66
    RHS1      R2        91
    RHS1      R3        88
    RHS1      R4        95
    RHS1      R5        63
    RHS1      R6        71
    RHS1      R7        67
    RHS1      R8        93
    RHS1      R9        52
    RHS1      R10       98
    RHS1      R11       52
    RHS1      R12       60
    RHS1      R13       74
    RHS1      R14       94
    RHS1      R15       57
    RHS1      R16       81
    RHS1      R17       85
    RHS1      R18       53
    RHS1      R19       96
    RHS1      R20       3
BOUNDS
 UP BND1      I0(6)     1
 UP BND1      I1(7)     1
 UP BND1      I2(8)     1
 UP BND1      I3(6)     1
 UP BND1      I4(8)     1
 UP BND1      I5(6)     1
 UP BND1      I6(8)     1
 UP BND1      I7(6)     1
 UP BND1      I8(8)     1
 UP BND1      I9(8)     1
ENDATA
